NAME : Data/eil51.tsp
COMMENT : Optimal tour for Data/eil51.tsp (tourLength = 445.7004207593286)
TYPE : TOUR
DIMENSION : 51
TOUR_SECTION
45
15
44
42
19
40
41
13
18
47
4
17
37
12
46
51
27
32
11
5
38
9
50
16
2
22
1
48
6
14
25
24
43
23
7
26
8
31
28
3
36
35
20
29
21
34
30
49
10
39
33
-1
EOF